% Generated FlatZinc statistics:
%%%mzn-stat: paths=0
%%%mzn-stat: flatBoolVars=1370
%%%mzn-stat: flatIntVars=155
%%%mzn-stat: flatBoolConstraints=429
%%%mzn-stat: flatIntConstraints=1502
%%%mzn-stat: evaluatedReifiedConstraints=89
%%%mzn-stat: evaluatedHalfReifiedConstraints=1281
%%%mzn-stat: method="minimize"
%%%mzn-stat: flatTime=0.101647
%%%mzn-stat-end
end = 120
carga_por_operario = [120, 0, 0]
desbalance = 120
Job 1:  13(op:1)  59(op:1)  64(op:1) 116(op:1) 118(op:1)
Job 2:  27(op:1)  51(op:1)  76(op:1)  77(op:1) 119(op:1)
Job 3:  20(op:1)  31(op:1)  36(op:1)  60(op:1)  85(op:1)
Job 4:  21(op:1)  32(op:1)  40(op:1)  72(op:1) 102(op:1)
Job 5:   0(op:1)  34(op:1)  44(op:1)  93(op:1) 109(op:1)
Job 6:   7(op:1)  10(op:1)  22(op:1)  54(op:1)  94(op:1)
----------
%%%mzn-stat: initTime=0.0064966
%%%mzn-stat: solveTime=59.8981
%%%mzn-stat: solutions=1
%%%mzn-stat: variables=1527
%%%mzn-stat: propagators=1931
%%%mzn-stat: propagations=1152613520
%%%mzn-stat: nodes=16699548
%%%mzn-stat: failures=8349745
%%%mzn-stat: restarts=0
%%%mzn-stat: peakDepth=89
%%%mzn-stat-end
%%%mzn-stat: nSolutions=1
%%%mzn-stat-end
